ITEM = 1..25;
capacity1 = 225;
capacity2 = 225;
capacity3 = 225;
profits = [20, 25, 20, 45, 21, 85, 42, 35, 43, 20, 90, 42, 37, 62, 47, 66, 62, 46, 49, 31, 38, 36, 49, 42, 33];
weights = [46, 48, 25, 42, 38, 93, 56, 29, 59, 40, 80, 63, 38, 87, 47, 95, 72, 62, 40, 76, 29, 52, 49, 49, 36];
